p cnf 387 940
c uncontrollable inputs:
a 18 19 20 21 22 23 24 25 26 27 28 29 30 31 32 33 34 0
c state variables:
a 35 36 37 38 39 40 41 42 43 44 45 46 47 48 49 50 51 52 53 0
c next state variables:
a 54 55 56 57 58 59 60 61 62 63 64 65 66 67 68 69 70 71 72 0
c controllable inputs
d 1 18 19 20 21 22 23 24 25 26 27 28 29 30 31 32 33 34 35 36 37 38 39 40 41 42 43 44 45 46 47 48 49 50 51 52 53 0
d 2 18 19 20 21 22 23 24 25 26 27 28 29 30 31 32 33 34 35 36 37 38 39 40 41 42 43 44 45 46 47 48 49 50 51 52 53 0
d 3 18 19 20 21 22 23 24 25 26 27 28 29 30 31 32 33 34 35 36 37 38 39 40 41 42 43 44 45 46 47 48 49 50 51 52 53 0
d 4 18 19 20 21 22 23 24 25 26 27 28 29 30 31 32 33 34 35 36 37 38 39 40 41 42 43 44 45 46 47 48 49 50 51 52 53 0
d 5 18 19 20 21 22 23 24 25 26 27 28 29 30 31 32 33 34 35 36 37 38 39 40 41 42 43 44 45 46 47 48 49 50 51 52 53 0
d 6 18 19 20 21 22 23 24 25 26 27 28 29 30 31 32 33 34 35 36 37 38 39 40 41 42 43 44 45 46 47 48 49 50 51 52 53 0
d 7 18 19 20 21 22 23 24 25 26 27 28 29 30 31 32 33 34 35 36 37 38 39 40 41 42 43 44 45 46 47 48 49 50 51 52 53 0
d 8 18 19 20 21 22 23 24 25 26 27 28 29 30 31 32 33 34 35 36 37 38 39 40 41 42 43 44 45 46 47 48 49 50 51 52 53 0
d 9 18 19 20 21 22 23 24 25 26 27 28 29 30 31 32 33 34 35 36 37 38 39 40 41 42 43 44 45 46 47 48 49 50 51 52 53 0
d 10 18 19 20 21 22 23 24 25 26 27 28 29 30 31 32 33 34 35 36 37 38 39 40 41 42 43 44 45 46 47 48 49 50 51 52 53 0
d 11 18 19 20 21 22 23 24 25 26 27 28 29 30 31 32 33 34 35 36 37 38 39 40 41 42 43 44 45 46 47 48 49 50 51 52 53 0
d 12 18 19 20 21 22 23 24 25 26 27 28 29 30 31 32 33 34 35 36 37 38 39 40 41 42 43 44 45 46 47 48 49 50 51 52 53 0
d 13 18 19 20 21 22 23 24 25 26 27 28 29 30 31 32 33 34 35 36 37 38 39 40 41 42 43 44 45 46 47 48 49 50 51 52 53 0
d 14 18 19 20 21 22 23 24 25 26 27 28 29 30 31 32 33 34 35 36 37 38 39 40 41 42 43 44 45 46 47 48 49 50 51 52 53 0
d 15 18 19 20 21 22 23 24 25 26 27 28 29 30 31 32 33 34 35 36 37 38 39 40 41 42 43 44 45 46 47 48 49 50 51 52 53 0
d 16 18 19 20 21 22 23 24 25 26 27 28 29 30 31 32 33 34 35 36 37 38 39 40 41 42 43 44 45 46 47 48 49 50 51 52 53 0
d 17 18 19 20 21 22 23 24 25 26 27 28 29 30 31 32 33 34 35 36 37 38 39 40 41 42 43 44 45 46 47 48 49 50 51 52 53 0
c winning region (state)
d 73 35 36 37 38 39 40 41 42 43 44 45 46 47 48 49 50 51 52 53 0
c winning region (next state)
d 74 54 55 56 57 58 59 60 61 62 63 64 65 66 67 68 69 70 71 72 0
c tseitin variables
e 75 76 77 78 79 80 81 82 83 84 85 86 87 88 89 90 91 92 93 94 95 96 97 98 99 100 101 102 103 104 105 106 107 108 109 110 111 112 113 114 115 116 117 118 119 120 121 122 123 124 125 126 127 128 129 130 131 132 133 134 135 136 137 138 139 140 141 142 143 144 145 146 147 148 149 150 151 152 153 154 155 156 157 158 159 160 161 162 163 164 165 166 167 168 169 170 171 172 173 174 175 176 177 178 179 180 181 182 183 184 185 186 187 188 189 190 191 192 193 194 195 196 197 198 199 200 201 202 203 204 205 206 207 208 209 210 211 212 213 214 215 216 217 218 219 220 221 222 223 224 225 226 227 228 229 230 231 232 233 234 235 236 237 238 239 240 241 242 243 244 245 246 247 248 249 250 251 252 253 254 255 256 257 258 259 260 261 262 263 264 265 266 267 268 269 270 271 272 273 274 275 276 277 278 279 280 281 282 283 284 285 286 287 288 289 290 291 292 293 294 295 296 297 298 299 300 301 302 303 304 305 306 307 308 309 310 311 312 313 314 315 316 317 318 319 320 321 322 323 324 325 326 327 328 329 330 331 332 333 334 335 336 337 338 339 340 341 342 343 344 345 346 347 348 349 350 351 352 353 354 355 356 357 358 359 360 361 362 363 364 365 366 367 368 369 370 371 372 373 374 375 376 377 378 379 380 381 382 383 384 385 386 387 0
c clauses:
-75 -72 0
-75 53 0
75 72 -53 0
-76 72 0
-76 -53 0
76 -72 53 0
-77 -75 0
-77 -76 0
77 75 76 0
-78 -70 0
-78 51 0
78 70 -51 0
-79 70 0
-79 -51 0
79 -70 51 0
-80 -78 0
-80 -79 0
80 78 79 0
-81 -71 0
-81 52 0
81 71 -52 0
-82 71 0
-82 -52 0
82 -71 52 0
-83 -81 0
-83 -82 0
83 81 82 0
-84 80 0
-84 83 0
84 -80 -83 0
-85 77 0
-85 84 0
85 -77 -84 0
-86 -54 0
-86 35 0
86 54 -35 0
-87 54 0
-87 -35 0
87 -54 35 0
-88 -86 0
-88 -87 0
88 86 87 0
-89 -55 0
-89 36 0
89 55 -36 0
-90 55 0
-90 -36 0
90 -55 36 0
-91 -89 0
-91 -90 0
91 89 90 0
-92 88 0
-92 91 0
92 -88 -91 0
-93 -56 0
-93 37 0
93 56 -37 0
-94 56 0
-94 -37 0
94 -56 37 0
-95 -93 0
-95 -94 0
95 93 94 0
-96 -57 0
-96 38 0
96 57 -38 0
-97 57 0
-97 -38 0
97 -57 38 0
-98 -96 0
-98 -97 0
98 96 97 0
-99 95 0
-99 98 0
99 -95 -98 0
-100 92 0
-100 99 0
100 -92 -99 0
-101 -58 0
-101 39 0
101 58 -39 0
-102 58 0
-102 -39 0
102 -58 39 0
-103 -101 0
-103 -102 0
103 101 102 0
-104 -59 0
-104 40 0
104 59 -40 0
-105 59 0
-105 -40 0
105 -59 40 0
-106 -104 0
-106 -105 0
106 104 105 0
-107 103 0
-107 106 0
107 -103 -106 0
-108 -60 0
-108 41 0
108 60 -41 0
-109 60 0
-109 -41 0
109 -60 41 0
-110 -108 0
-110 -109 0
110 108 109 0
-111 -61 0
-111 42 0
111 61 -42 0
-112 61 0
-112 -42 0
112 -61 42 0
-113 -111 0
-113 -112 0
113 111 112 0
-114 110 0
-114 113 0
114 -110 -113 0
-115 107 0
-115 114 0
115 -107 -114 0
-116 100 0
-116 115 0
116 -100 -115 0
-117 -62 0
-117 43 0
117 62 -43 0
-118 62 0
-118 -43 0
118 -62 43 0
-119 -117 0
-119 -118 0
119 117 118 0
-120 -63 0
-120 44 0
120 63 -44 0
-121 63 0
-121 -44 0
121 -63 44 0
-122 -120 0
-122 -121 0
122 120 121 0
-123 119 0
-123 122 0
123 -119 -122 0
-124 -64 0
-124 45 0
124 64 -45 0
-125 64 0
-125 -45 0
125 -64 45 0
-126 -124 0
-126 -125 0
126 124 125 0
-127 -65 0
-127 46 0
127 65 -46 0
-128 65 0
-128 -46 0
128 -65 46 0
-129 -127 0
-129 -128 0
129 127 128 0
-130 126 0
-130 129 0
130 -126 -129 0
-131 123 0
-131 130 0
131 -123 -130 0
-132 -66 0
-132 47 0
132 66 -47 0
-133 66 0
-133 -47 0
133 -66 47 0
-134 -132 0
-134 -133 0
134 132 133 0
-135 -67 0
-135 48 0
135 67 -48 0
-136 67 0
-136 -48 0
136 -67 48 0
-137 -135 0
-137 -136 0
137 135 136 0
-138 134 0
-138 137 0
138 -134 -137 0
-139 -68 0
-139 49 0
139 68 -49 0
-140 68 0
-140 -49 0
140 -68 49 0
-141 -139 0
-141 -140 0
141 139 140 0
-142 -69 0
-142 50 0
142 69 -50 0
-143 69 0
-143 -50 0
143 -69 50 0
-144 -142 0
-144 -143 0
144 142 143 0
-145 141 0
-145 144 0
145 -141 -144 0
-146 138 0
-146 145 0
146 -138 -145 0
-147 131 0
-147 146 0
147 -131 -146 0
-148 116 0
-148 147 0
148 -116 -147 0
-149 85 0
-149 148 0
149 -85 -148 0
-150 74 0
-150 -73 0
150 -74 73 0
-151 -74 0
-151 73 0
151 74 -73 0
-152 -150 0
-152 -151 0
152 150 151 0
-153 149 0
-153 -152 0
153 -149 152 0
-154 52 0
-154 35 0
154 -52 -35 0
-155 53 0
-155 35 0
155 -53 -35 0
-156 -154 0
-156 -155 0
156 154 155 0
-157 -2 0
-157 1 0
157 2 -1 0
-158 2 0
-158 -1 0
158 -2 1 0
-159 -157 0
-159 -158 0
159 157 158 0
-160 -3 0
-160 -159 0
160 3 159 0
-161 3 0
-161 159 0
161 -3 -159 0
-162 -160 0
-162 -161 0
162 160 161 0
-163 -4 0
-163 -162 0
163 4 162 0
-164 4 0
-164 162 0
164 -4 -162 0
-165 -163 0
-165 -164 0
165 163 164 0
-166 -5 0
-166 -165 0
166 5 165 0
-167 5 0
-167 165 0
167 -5 -165 0
-168 -166 0
-168 -167 0
168 166 167 0
-169 -6 0
-169 -168 0
169 6 168 0
-170 6 0
-170 168 0
170 -6 -168 0
-171 -169 0
-171 -170 0
171 169 170 0
-172 -7 0
-172 -171 0
172 7 171 0
-173 7 0
-173 171 0
173 -7 -171 0
-174 -172 0
-174 -173 0
174 172 173 0
-175 -8 0
-175 -174 0
175 8 174 0
-176 8 0
-176 174 0
176 -8 -174 0
-177 -175 0
-177 -176 0
177 175 176 0
-178 -9 0
-178 -177 0
178 9 177 0
-179 9 0
-179 177 0
179 -9 -177 0
-180 -178 0
-180 -179 0
180 178 179 0
-181 -10 0
-181 -180 0
181 10 180 0
-182 10 0
-182 180 0
182 -10 -180 0
-183 -181 0
-183 -182 0
183 181 182 0
-184 -11 0
-184 -183 0
184 11 183 0
-185 11 0
-185 183 0
185 -11 -183 0
-186 -184 0
-186 -185 0
186 184 185 0
-187 -12 0
-187 -186 0
187 12 186 0
-188 12 0
-188 186 0
188 -12 -186 0
-189 -187 0
-189 -188 0
189 187 188 0
-190 -13 0
-190 -189 0
190 13 189 0
-191 13 0
-191 189 0
191 -13 -189 0
-192 -190 0
-192 -191 0
192 190 191 0
-193 -14 0
-193 -192 0
193 14 192 0
-194 14 0
-194 192 0
194 -14 -192 0
-195 -193 0
-195 -194 0
195 193 194 0
-196 -15 0
-196 -195 0
196 15 195 0
-197 15 0
-197 195 0
197 -15 -195 0
-198 -196 0
-198 -197 0
198 196 197 0
-199 -16 0
-199 -198 0
199 16 198 0
-200 16 0
-200 198 0
200 -16 -198 0
-201 -199 0
-201 -200 0
201 199 200 0
-202 -17 0
-202 -201 0
202 17 201 0
-203 17 0
-203 201 0
203 -17 -201 0
-204 -202 0
-204 -203 0
204 202 203 0
-205 155 0
-205 -204 0
205 -155 204 0
-206 -156 0
-206 -205 0
206 156 205 0
-207 -72 0
-207 206 0
207 72 -206 0
-208 72 0
-208 -206 0
208 -72 206 0
-209 -207 0
-209 -208 0
209 207 208 0
-210 -154 0
-210 -205 0
210 154 205 0
-211 33 0
-211 210 0
211 -33 -210 0
-212 51 0
-212 35 0
212 -51 -35 0
-213 212 0
-213 -210 0
213 -212 210 0
-214 -211 0
-214 -213 0
214 211 213 0
-215 -70 0
-215 -214 0
215 70 214 0
-216 70 0
-216 214 0
216 -70 -214 0
-217 -215 0
-217 -216 0
217 215 216 0
-218 34 0
-218 210 0
218 -34 -210 0
-219 154 0
-219 205 0
219 -154 -205 0
-220 -218 0
-220 -219 0
220 218 219 0
-221 -71 0
-221 -220 0
221 71 220 0
-222 71 0
-222 220 0
222 -71 -220 0
-223 -221 0
-223 -222 0
223 221 222 0
-224 217 0
-224 223 0
224 -217 -223 0
-225 209 0
-225 224 0
225 -209 -224 0
-226 -18 0
-226 210 0
226 18 -210 0
-227 36 0
-227 35 0
227 -36 -35 0
-228 -227 0
-228 -210 0
228 227 210 0
-229 -226 0
-229 -228 0
229 226 228 0
-230 -55 0
-230 229 0
230 55 -229 0
-231 55 0
-231 -229 0
231 -55 229 0
-232 -230 0
-232 -231 0
232 230 231 0
-233 54 0
-233 232 0
233 -54 -232 0
-234 -19 0
-234 210 0
234 19 -210 0
-235 37 0
-235 35 0
235 -37 -35 0
-236 -235 0
-236 -210 0
236 235 210 0
-237 -234 0
-237 -236 0
237 234 236 0
-238 -56 0
-238 237 0
238 56 -237 0
-239 56 0
-239 -237 0
239 -56 237 0
-240 -238 0
-240 -239 0
240 238 239 0
-241 -20 0
-241 210 0
241 20 -210 0
-242 38 0
-242 35 0
242 -38 -35 0
-243 -242 0
-243 -210 0
243 242 210 0
-244 -241 0
-244 -243 0
244 241 243 0
-245 -57 0
-245 244 0
245 57 -244 0
-246 57 0
-246 -244 0
246 -57 244 0
-247 -245 0
-247 -246 0
247 245 246 0
-248 240 0
-248 247 0
248 -240 -247 0
-249 233 0
-249 248 0
249 -233 -248 0
-250 -21 0
-250 210 0
250 21 -210 0
-251 39 0
-251 35 0
251 -39 -35 0
-252 -251 0
-252 -210 0
252 251 210 0
-253 -250 0
-253 -252 0
253 250 252 0
-254 -58 0
-254 253 0
254 58 -253 0
-255 58 0
-255 -253 0
255 -58 253 0
-256 -254 0
-256 -255 0
256 254 255 0
-257 -22 0
-257 210 0
257 22 -210 0
-258 40 0
-258 35 0
258 -40 -35 0
-259 -258 0
-259 -210 0
259 258 210 0
-260 -257 0
-260 -259 0
260 257 259 0
-261 -59 0
-261 260 0
261 59 -260 0
-262 59 0
-262 -260 0
262 -59 260 0
-263 -261 0
-263 -262 0
263 261 262 0
-264 256 0
-264 263 0
264 -256 -263 0
-265 -23 0
-265 210 0
265 23 -210 0
-266 41 0
-266 35 0
266 -41 -35 0
-267 -266 0
-267 -210 0
267 266 210 0
-268 -265 0
-268 -267 0
268 265 267 0
-269 -60 0
-269 268 0
269 60 -268 0
-270 60 0
-270 -268 0
270 -60 268 0
-271 -269 0
-271 -270 0
271 269 270 0
-272 -24 0
-272 210 0
272 24 -210 0
-273 42 0
-273 35 0
273 -42 -35 0
-274 -273 0
-274 -210 0
274 273 210 0
-275 -272 0
-275 -274 0
275 272 274 0
-276 -61 0
-276 275 0
276 61 -275 0
-277 61 0
-277 -275 0
277 -61 275 0
-278 -276 0
-278 -277 0
278 276 277 0
-279 271 0
-279 278 0
279 -271 -278 0
-280 264 0
-280 279 0
280 -264 -279 0
-281 249 0
-281 280 0
281 -249 -280 0
-282 -25 0
-282 210 0
282 25 -210 0
-283 43 0
-283 35 0
283 -43 -35 0
-284 -283 0
-284 -210 0
284 283 210 0
-285 -282 0
-285 -284 0
285 282 284 0
-286 -62 0
-286 285 0
286 62 -285 0
-287 62 0
-287 -285 0
287 -62 285 0
-288 -286 0
-288 -287 0
288 286 287 0
-289 -26 0
-289 210 0
289 26 -210 0
-290 44 0
-290 35 0
290 -44 -35 0
-291 -290 0
-291 -210 0
291 290 210 0
-292 -289 0
-292 -291 0
292 289 291 0
-293 -63 0
-293 292 0
293 63 -292 0
-294 63 0
-294 -292 0
294 -63 292 0
-295 -293 0
-295 -294 0
295 293 294 0
-296 288 0
-296 295 0
296 -288 -295 0
-297 -27 0
-297 210 0
297 27 -210 0
-298 45 0
-298 35 0
298 -45 -35 0
-299 -298 0
-299 -210 0
299 298 210 0
-300 -297 0
-300 -299 0
300 297 299 0
-301 -64 0
-301 300 0
301 64 -300 0
-302 64 0
-302 -300 0
302 -64 300 0
-303 -301 0
-303 -302 0
303 301 302 0
-304 -28 0
-304 210 0
304 28 -210 0
-305 46 0
-305 35 0
305 -46 -35 0
-306 -305 0
-306 -210 0
306 305 210 0
-307 -304 0
-307 -306 0
307 304 306 0
-308 -65 0
-308 307 0
308 65 -307 0
-309 65 0
-309 -307 0
309 -65 307 0
-310 -308 0
-310 -309 0
310 308 309 0
-311 303 0
-311 310 0
311 -303 -310 0
-312 296 0
-312 311 0
312 -296 -311 0
-313 -29 0
-313 210 0
313 29 -210 0
-314 47 0
-314 35 0
314 -47 -35 0
-315 -314 0
-315 -210 0
315 314 210 0
-316 -313 0
-316 -315 0
316 313 315 0
-317 -66 0
-317 316 0
317 66 -316 0
-318 66 0
-318 -316 0
318 -66 316 0
-319 -317 0
-319 -318 0
319 317 318 0
-320 -30 0
-320 210 0
320 30 -210 0
-321 48 0
-321 35 0
321 -48 -35 0
-322 -321 0
-322 -210 0
322 321 210 0
-323 -320 0
-323 -322 0
323 320 322 0
-324 -67 0
-324 323 0
324 67 -323 0
-325 67 0
-325 -323 0
325 -67 323 0
-326 -324 0
-326 -325 0
326 324 325 0
-327 319 0
-327 326 0
327 -319 -326 0
-328 -31 0
-328 210 0
328 31 -210 0
-329 49 0
-329 35 0
329 -49 -35 0
-330 -329 0
-330 -210 0
330 329 210 0
-331 -328 0
-331 -330 0
331 328 330 0
-332 -68 0
-332 331 0
332 68 -331 0
-333 68 0
-333 -331 0
333 -68 331 0
-334 -332 0
-334 -333 0
334 332 333 0
-335 -32 0
-335 210 0
335 32 -210 0
-336 50 0
-336 35 0
336 -50 -35 0
-337 -336 0
-337 -210 0
337 336 210 0
-338 -335 0
-338 -337 0
338 335 337 0
-339 -69 0
-339 338 0
339 69 -338 0
-340 69 0
-340 -338 0
340 -69 338 0
-341 -339 0
-341 -340 0
341 339 340 0
-342 334 0
-342 341 0
342 -334 -341 0
-343 327 0
-343 342 0
343 -327 -342 0
-344 312 0
-344 343 0
344 -312 -343 0
-345 281 0
-345 344 0
345 -281 -344 0
-346 225 0
-346 345 0
346 -225 -345 0
-347 346 0
-347 151 0
347 -346 -151 0
-348 46 0
-348 314 0
348 -46 -314 0
-349 36 0
-349 235 0
349 -36 -235 0
-350 242 0
-350 349 0
350 -242 -349 0
-351 251 0
-351 350 0
351 -251 -350 0
-352 258 0
-352 351 0
352 -258 -351 0
-353 266 0
-353 352 0
353 -266 -352 0
-354 273 0
-354 353 0
354 -273 -353 0
-355 283 0
-355 354 0
355 -283 -354 0
-356 290 0
-356 355 0
356 -290 -355 0
-357 298 0
-357 356 0
357 -298 -356 0
-358 348 0
-358 357 0
358 -348 -357 0
-359 48 0
-359 329 0
359 -48 -329 0
-360 359 0
-360 336 0
360 -359 -336 0
-361 51 0
-361 154 0
361 -51 -154 0
-362 360 0
-362 361 0
362 -360 -361 0
-363 358 0
-363 362 0
363 -358 -362 0
-364 363 0
-364 155 0
364 -363 -155 0
-365 73 0
-365 364 0
365 -73 -364 0
-366 -52 0
-366 -51 0
366 52 51 0
-367 -53 0
-367 366 0
367 53 -366 0
-368 -36 0
-368 -35 0
368 36 35 0
-369 -38 0
-369 -37 0
369 38 37 0
-370 368 0
-370 369 0
370 -368 -369 0
-371 -40 0
-371 -39 0
371 40 39 0
-372 -42 0
-372 -41 0
372 42 41 0
-373 371 0
-373 372 0
373 -371 -372 0
-374 370 0
-374 373 0
374 -370 -373 0
-375 -44 0
-375 -43 0
375 44 43 0
-376 -46 0
-376 -45 0
376 46 45 0
-377 375 0
-377 376 0
377 -375 -376 0
-378 -48 0
-378 -47 0
378 48 47 0
-379 -50 0
-379 -49 0
379 50 49 0
-380 378 0
-380 379 0
380 -378 -379 0
-381 377 0
-381 380 0
381 -377 -380 0
-382 374 0
-382 381 0
382 -374 -381 0
-383 367 0
-383 382 0
383 -367 -382 0
-384 -73 0
-384 383 0
384 73 -383 0
-385 -365 0
-385 -384 0
385 365 384 0
-386 -347 0
-386 385 0
386 347 -385 0
-387 -153 0
-387 386 0
387 153 -386 0
387 0
